92 72 69 64 28 23 19 6 57 84 1 12 34 24 
29 71 62 41 86 87 26 55 75 
79 56 54 17 96 83 
22 97 43 13 
61 44 46 
45 42 7 
52 95 76 90 
47 78 66 
63 27 16 9 18 35 5 21 70 
39 2 51 89 
30 73 59 
20 
65 40 38 74 25 93 91 
98 37 50 85 
3 67 58 48 77 
88 
60 
14 15 53 81 10 32 
36 33 11 8 99 49 31 68 4 82 94 100 80 

